letting grid be [
[ 1, 1, 1,  1, 2, 2,  3, 3, 4],
[ 5, 6, 6,  6, 7, 7,  8, 8, 4],
[ 9, 9,10, 11,12,12,  8, 4, 4],

[13,14,14, 11,11,15, 16,16,17],
[13,18,19, 19,15,15, 15,16,17],
[13,18,18, 19,20,20, 21,21,17],

[22,22,23, 24,24,20, 25,26,26],
[22,23,23, 27,27,28, 28,28,29],
[22,30,30, 31,31,32, 32,32,32]
]

letting hints be [25,3,11,21,6, 18,7,13,5,7, 16,14,8,14,20, 11,16,18,16,15, 15,25,14,12,6, 7,3,19,4,6, 13,17]
